data/instances/vrp_files/train_52.vrp
NAME : 52
COMMENT : Generated instance No. 52
TYPE : CVRP
DIMENSION : 21
EDGE_WEIGHT_TYPE : EUC_2D
CAPACITY : 30
NODE_COORD_SECTION
 1 204 519
 2 627 247
 3 162 186
 4 19 390
 5 191 411
 6 934 430
 7 877 605
 8 247 355
 9 83 333
 10 677 72
 11 205 381
 12 982 784
 13 733 116
 14 780 785
 15 601 990
 16 325 941
 17 914 11
 18 450 977
 19 103 547
 20 978 555
 21 189 582
DEMAND_SECTION
1 0
2 7
3 3
4 10
5 2
6 9
7 3
8 2
9 8
10 10
11 6
12 6
13 10
14 7
15 7
16 6
17 4
18 9
19 6
20 4
21 3
DEPOT_SECTION
 1
 -1
EOF